p cnf 50 800 
1 -40 29 0
1 40 24 0
1 22 -39 0
1 20 16 0
1 25 8 0
1 -8 -15 0
1 -15 -24 0
1 32 5 0
1 -33 19 0
1 -42 14 0
1 -2 45 0
1 -10 -19 0
1 -27 -48 0
1 -12 -41 0
1 14 -29 0
1 34 33 0
1 -1 -12 0
1 26 -30 0
1 -25 -1 0
1 20 -37 0
1 -35 -18 0
1 8 9 0
1 38 33 0
1 -15 34 0
1 46 25 0
1 -5 -13 0
1 14 -47 0
1 -34 33 0
1 50 9 0
1 -18 35 0
1 -17 -44 0
1 -28 13 0
1 -38 -4 0
1 17 -42 0
1 38 33 0
1 -15 43 0
1 2 -20 0
1 47 -24 0
1 50 35 0
1 -31 -41 0
1 34 41 0
1 11 -32 0
1 46 -34 0
1 -22 21 0
1 41 -8 0
1 -32 -11 0
1 -45 -26 0
1 -11 19 0
1 -44 45 0
1 -38 -39 0
1 26 10 0
1 33 -6 0
1 43 5 0
1 36 -46 0
1 22 -1 0
1 -19 9 0
1 3 -37 0
1 -26 7 0
1 16 -50 0
1 -5 -39 0
1 44 -39 0
1 35 33 0
1 33 -38 0
1 -32 14 0
1 -31 -34 0
1 18 45 0
1 11 -1 0
1 -39 -19 0
1 36 22 0
1 31 18 0
1 6 -3 0
1 16 -48 0
1 -31 -49 0
1 44 36 0
1 37 36 0
1 4 -46 0
1 17 -14 0
1 32 -9 0
1 12 -14 0
1 11 -30 0
1 -29 6 0
1 -42 -3 0
1 38 -29 0
1 -24 -5 0
1 -19 -40 0
1 -49 46 0
1 -9 11 0
1 40 9 0
1 -15 48 0
1 -1 -16 0
1 -44 37 0
1 41 11 0
1 1 -43 0
1 39 -45 0
1 5 -44 0
1 2 25 0
1 23 2 0
1 17 7 0
1 -43 -40 0
1 -1 35 0
1 -27 1 0
1 45 -7 0
1 -50 27 0
1 1 7 0
1 -9 41 0
1 -48 -6 0
1 45 -13 0
1 -48 16 0
1 -17 45 0
1 1 50 0
1 27 -5 0
1 11 22 0
1 -12 46 0
1 -1 -30 0
1 -42 -24 0
1 40 36 0
1 31 -2 0
1 -2 -28 0
1 32 -35 0
1 6 11 0
1 5 -28 0
1 -27 -46 0
1 -36 15 0
1 27 -45 0
1 -11 -33 0
1 15 -7 0
1 12 6 0
1 -24 18 0
1 -19 11 0
1 -36 -27 0
1 -16 22 0
1 23 5 0
1 35 -9 0
1 29 -20 0
1 25 -20 0
1 -38 40 0
1 1 -26 0
1 -2 20 0
1 -41 12 0
1 17 48 0
1 -7 -38 0
1 -8 -45 0
1 -15 39 0
1 29 -28 0
1 4 28 0
1 47 -50 0
1 -12 -50 0
1 -48 18 0
1 -6 21 0
1 -16 -15 0
1 -3 -24 0
1 2 40 0
1 18 23 0
1 23 -32 0
1 31 -50 0
1 -18 41 0
1 -11 -21 0
1 35 -29 0
1 2 39 0
1 29 -27 0
1 50 17 0
1 48 -10 0
1 9 -18 0
1 -8 40 0
1 -11 -33 0
1 -11 2 0
1 40 50 0
1 27 -23 0
1 -39 -22 0
1 31 -5 0
1 22 -23 0
1 -12 14 0
1 46 44 0
1 45 -49 0
1 49 -34 0
1 6 -15 0
1 -37 1 0
1 5 -46 0
1 18 -22 0
1 35 -5 0
1 -48 -18 0
1 -17 5 0
1 -38 -29 0
1 -44 -36 0
1 -16 47 0
1 -3 24 0
1 30 -9 0
1 -10 -40 0
1 -26 -24 0
1 1 -10 0
1 1 -10 0
1 -46 3 0
1 50 35 0
1 -9 -2 0
1 10 36 0
1 -26 4 0
1 -28 -41 0
1 50 48 0
1 -7 31 0
1 33 -32 0
1 -16 37 0
1 39 -11 0
1 46 36 0
1 39 14 0
1 -4 3 0
1 50 2 0
1 32 49 0
1 -30 -23 0
1 10 -30 0
1 -40 -34 0
1 19 13 0
1 26 -29 0
1 -31 -19 0
1 -20 38 0
1 36 46 0
1 18 -12 0
1 42 -31 0
1 14 -20 0
1 -32 24 0
1 -2 -14 0
1 32 21 0
1 9 -48 0
1 44 20 0
1 -31 20 0
1 1 12 0
1 -32 20 0
1 43 -36 0
1 -49 -8 0
1 -28 -38 0
1 -36 31 0
1 -41 40 0
1 28 -8 0
1 10 -24 0
1 19 33 0
1 3 17 0
1 -43 -34 0
1 16 24 0
1 5 -44 0
1 33 41 0
1 -48 15 0
1 -38 21 0
1 4 10 0
1 26 14 0
1 -47 4 0
1 28 -12 0
1 -6 -19 0
1 -10 32 0
1 46 -49 0
1 -19 2 0
1 -11 -50 0
1 14 44 0
1 48 1 0
1 12 36 0
1 4 34 0
1 16 4 0
1 -2 34 0
1 -35 -34 0
1 -34 -20 0
1 14 35 0
1 -35 -29 0
1 15 43 0
1 -27 -19 0
1 22 1 0
1 -35 47 0
1 30 35 0
1 4 46 0
1 -30 16 0
1 45 14 0
1 -7 -25 0
1 43 9 0
1 -9 -27 0
1 23 29 0
1 13 27 0
1 -23 24 0
1 40 -12 0
1 -26 -28 0
1 2 -20 0
1 28 -40 0
1 -17 -45 0
1 -24 -41 0
1 18 -7 0
1 -30 37 0
1 49 9 0
1 36 -46 0
1 -16 -21 0
1 -11 -40 0
1 35 9 0
1 -50 8 0
1 14 -46 0
1 32 -48 0
1 6 -16 0
1 -12 -10 0
1 31 -11 0
1 1 -50 0
1 -8 34 0
1 42 35 0
1 -31 30 0
1 -27 -12 0
1 28 -47 0
1 7 -3 0
1 -13 36 0
1 -35 -46 0
1 -30 39 0
1 -24 22 0
1 1 -26 0
1 37 8 0
1 4 34 0
1 -36 -18 0
1 4 -25 0
1 -21 9 0
1 48 28 0
1 -49 25 0
1 40 -27 0
1 37 24 0
1 26 -12 0
1 -9 -4 0
1 16 34 0
1 13 -4 0
1 -26 42 0
1 -16 39 0
1 16 7 0
1 30 5 0
1 -16 27 0
1 31 -44 0
1 27 -10 0
1 -14 -41 0
1 33 -19 0
1 8 10 0
1 -16 -7 0
1 -11 -47 0
1 -24 47 0
1 40 7 0
1 17 -20 0
1 11 -36 0
1 -5 32 0
1 -41 45 0
1 2 11 0
1 -7 -49 0
1 -45 -39 0
1 45 36 0
1 -5 7 0
1 42 -10 0
1 42 -50 0
1 -45 -43 0
1 3 39 0
1 -38 -46 0
1 34 -26 0
1 -11 18 0
1 -24 30 0
1 40 -39 0
1 39 -19 0
1 -11 2 0
1 40 -36 0
1 31 13 0
1 -38 -26 0
1 43 31 0
1 -10 -44 0
1 -32 42 0
1 10 42 0
1 -43 -31 0
1 16 -6 0
1 19 -10 0
1 -1 -5 0
1 -18 2 0
1 -33 40 0
1 -19 13 0
1 15 -3 0
1 -36 -11 0
1 6 11 0
1 17 7 0
1 -43 -48 0
1 -38 -49 0
1 -42 50 0
1 32 -5 0
1 8 -14 0
1 -24 -13 0
1 -23 -50 0
1 7 -11 0
1 -8 -49 0
1 48 -18 0
1 -17 43 0
1 -12 -33 0
1 -4 22 0
1 -9 30 0
1 24 -27 0
1 -37 -13 0
1 -5 37 0
1 -8 22 0
1 -15 -37 0
1 20 24 0
1 -45 2 0
1 31 26 0
1 -3 -26 0
1 39 -29 0
1 16 7 0
1 -28 -3 0
1 39 43 0
1 -16 20 0
1 21 19 0
1 45 -25 0
1 -50 -42 0
1 -21 -11 0
1 17 -44 0
1 -46 -6 0
1 -49 5 0
1 -24 -25 0
1 -38 45 0
1 50 -34 0
1 21 -49 0
1 -28 48 0
1 6 43 0
1 29 -2 0
1 44 24 0
1 49 -2 0
1 -47 46 0
1 37 -1 0
1 -31 -34 0
1 5 2 0
1 13 50 0
1 -34 -18 0
1 -35 -45 0
1 -31 -39 0
1 -35 21 0
1 21 39 0
1 -22 -15 0
1 -16 -1 0
1 1 -22 0
1 39 48 0
1 43 17 0
1 -5 -8 0
1 29 -33 0
1 21 -30 0
1 45 31 0
1 -31 -17 0
1 38 -40 0
1 -38 -40 0
1 6 18 0
1 -25 2 0
1 34 11 0
1 -40 -2 0
1 -32 15 0
1 -31 34 0
1 -23 9 0
1 -48 44 0
1 12 -44 0
1 -45 -13 0
1 -24 41 0
1 -43 30 0
1 -45 -43 0
1 -26 -31 0
1 40 -38 0
1 -32 -49 0
1 -42 -4 0
1 17 -18 0
1 9 49 0
1 29 1 0
1 -43 12 0
1 43 -42 0
1 30 24 0
1 23 10 0
1 14 -33 0
1 1 16 0
1 15 -24 0
1 24 34 0
1 -46 -16 0
1 8 -49 0
1 -23 -40 0
1 50 3 0
1 -35 -10 0
1 -26 -14 0
1 -37 4 0
1 -38 -1 0
1 16 10 0
1 8 -41 0
1 -30 -8 0
1 -10 -35 0
1 -45 36 0
1 50 -24 0
1 -27 45 0
1 -45 23 0
1 -32 -18 0
1 8 -43 0
1 50 46 0
1 31 9 0
1 -45 -33 0
1 -7 30 0
1 -26 -48 0
1 -45 7 0
1 40 -18 0
1 -38 -8 0
1 24 -41 0
1 -44 -38 0
1 -33 -20 0
1 -50 16 0
1 13 36 0
1 42 -2 0
1 19 38 0
1 -45 44 0
1 35 -1 0
1 39 28 0
1 48 -36 0
1 2 50 0
1 35 -44 0
1 45 40 0
1 28 19 0
1 -13 -8 0
1 9 -42 0
1 19 28 0
1 14 28 0
1 -27 34 0
1 -27 1 0
1 -40 42 0
1 -11 5 0
1 12 30 0
1 22 -43 0
1 20 -35 0
1 -12 -19 0
1 -2 -28 0
1 -29 35 0
1 -27 -35 0
1 39 25 0
1 5 -27 0
1 20 -38 0
1 22 -23 0
1 42 -21 0
1 49 -20 0
1 -4 -22 0
1 7 -31 0
1 -5 25 0
1 -2 16 0
1 3 2 0
1 25 33 0
1 4 28 0
1 -48 31 0
1 -2 25 0
1 5 48 0
1 23 48 0
1 -14 4 0
1 -5 -6 0
1 -38 -47 0
1 -25 4 0
1 34 -23 0
1 -47 4 0
1 2 47 0
1 -44 29 0
1 32 -43 0
1 48 -12 0
1 -9 -11 0
1 14 -20 0
1 -42 -27 0
1 -31 -26 0
1 22 48 0
1 26 3 0
1 -46 44 0
1 10 29 0
1 -5 49 0
1 3 -30 0
1 12 -3 0
1 41 -42 0
1 47 -26 0
1 -48 -22 0
1 16 39 0
1 -18 17 0
1 -15 27 0
1 -7 12 0
1 15 7 0
1 -48 -15 0
1 -40 -7 0
1 -28 -38 0
1 27 -32 0
1 48 12 0
1 -39 -13 0
1 25 -26 0
1 -33 -18 0
1 32 37 0
1 43 17 0
1 4 -40 0
1 21 30 0
1 -41 31 0
1 -11 -24 0
1 36 17 0
1 -10 -48 0
1 -21 -6 0
1 -15 8 0
1 21 -22 0
1 -46 -44 0
1 -24 -20 0
1 43 -18 0
1 -34 -39 0
1 -37 15 0
1 -21 -27 0
1 -35 36 0
1 8 13 0
1 -6 -46 0
1 15 29 0
1 -46 -35 0
1 23 17 0
1 32 11 0
1 -38 13 0
1 -48 24 0
1 37 -32 0
1 27 -47 0
1 -26 36 0
1 -20 -35 0
1 1 -22 0
1 -32 20 0
1 -32 -19 0
1 -43 -18 0
1 49 -43 0
1 39 44 0
1 -29 -16 0
1 -50 -35 0
1 -7 -43 0
1 12 -15 0
1 34 -48 0
1 15 7 0
1 -49 -27 0
1 20 -5 0
1 -20 38 0
1 22 -36 0
1 28 -1 0
1 -16 -24 0
1 22 -5 0
1 -12 30 0
1 -6 -38 0
1 43 50 0
1 -37 19 0
1 -5 -2 0
1 3 4 0
1 27 -5 0
1 -10 41 0
1 -21 -35 0
1 22 28 0
1 -27 25 0
1 44 -10 0
1 -12 8 0
1 -11 -2 0
1 -7 49 0
1 -40 21 0
1 -5 -16 0
1 -43 37 0
1 -11 19 0
1 28 -4 0
1 12 32 0
1 33 -35 0
1 33 46 0
1 -16 40 0
1 -6 -16 0
1 2 38 0
1 6 -1 0
1 4 17 0
1 -48 -25 0
1 9 -47 0
1 42 24 0
1 -14 44 0
1 10 23 0
1 10 36 0
1 -36 -39 0
1 6 20 0
1 -45 41 0
1 -37 -3 0
1 -27 -7 0
1 1 12 0
1 34 -27 0
1 13 -45 0
1 -33 -8 0
1 -28 42 0
1 33 25 0
1 -28 18 0
1 -25 -32 0
1 -43 -4 0
1 31 -7 0
1 -1 -30 0
1 37 28 0
1 -19 12 0
1 37 9 0
1 26 18 0
1 -49 -12 0
1 16 -11 0
1 -18 39 0
1 18 30 0
1 7 -22 0
1 -34 2 0
1 -10 -47 0
1 -14 1 0
1 13 -12 0
1 -23 25 0
1 -14 -8 0
1 -9 -33 0
1 49 25 0
1 2 -34 0
1 17 45 0
1 -31 -25 0
1 29 8 0
1 32 -4 0
1 -11 41 0
1 -23 37 0
1 12 -22 0
1 32 -11 0
1 23 -30 0
1 -9 47 0
1 -11 28 0
1 40 -43 0
1 30 43 0
1 -41 26 0
1 -47 -41 0
1 1 10 0
1 39 -9 0
1 6 46 0
1 -24 11 0
1 -4 -44 0
1 -47 50 0
1 27 39 0
1 36 -47 0
1 -50 42 0
1 12 30 0
1 -43 31 0
1 11 43 0
1 37 -40 0
1 39 48 0
1 -36 23 0
1 20 1 0
1 -42 50 0
1 30 42 0
1 -23 -40 0
1 -33 32 0
1 22 9 0
1 -6 -7 0
1 29 -9 0
1 10 29 0
1 28 44 0
1 -35 14 0
1 -4 -5 0
1 37 38 0
1 46 7 0
1 -13 -45 0
1 4 -40 0
1 7 -14 0
1 -18 -35 0
1 42 -36 0
1 22 -39 0
1 -47 14 0
1 14 48 0
1 39 -13 0
1 -26 -42 0
1 2 35 0
1 20 39 0
1 -25 -17 0
1 5 11 0
1 25 -8 0
1 -5 -25 0
1 38 3 0
1 44 -7 0
1 42 10 0
1 49 30 0
1 47 16 0
1 27 42 0
1 -49 18 0
1 -42 -32 0
1 -35 -18 0
1 25 45 0
1 -5 38 0
1 -17 2 0
1 17 -44 0
1 -36 -16 0
1 -33 32 0
1 13 -33 0
1 -1 -47 0
1 -41 -49 0
1 -37 21 0
1 22 -24 0
1 -18 30 0
1 -45 -24 0
1 5 24 0
1 7 5 0
1 -1 -41 0
1 -40 -25 0
1 -45 35 0
1 8 -45 0
1 -24 36 0
1 -10 16 0
1 -39 -46 0
1 1 47 0
1 -37 -34 0
1 8 30 0
1 15 31 0
1 -26 -23 0
1 8 26 0
1 -41 -12 0
1 8 13 0
1 9 -27 0
1 10 3 0
1 33 -24 0
1 4 -38 0
1 -11 17 0
1 -43 -45 0
1 6 16 0
1 29 -38 0
1 -15 32 0
1 -35 4 0
1 %
1 0
1 
